# Datos del problema de diseño de red
# Orígenes: A=(1,4) -> nodo 11; B=(4,1) -> nodo 3
# Destinos: nodos azules con círculo rosa. Cada origen envía 120 a cada destino.

#set of nodes
set N := 1 2 3 4 5 6 7 8 9 10 11 12 13 14 15 16 17 18 19 20 21 22 23 24 ;

#set of origins
set O := 3 11 ;

#set of links
set A :=
(1,2) (2,1) (2,3) (3,2) (1,4)
(5,4) (5,6) (6,5) (3,6) (6,3) (3,7) (7,3)
(4,9) (9,4) (5,10) (8,9) (9,8) (9,10) (10,9)
(8,11) (11,8) (9,12) (12,9) (10,13) (13,10)
(11,12) (12,11) (12,13) (13,12)
(13,14) (7,14) (14,7) (12,15) (15,12) (13,15)
(15,16) (13,17) (17,13) (16,17) (17,16) (17,18)
(18,17) (14,18) (18,14) (7,19) (18,21) (17,20)
(20,17) (20,21) (21,20) (16,22) (22,16)
(22,11) (20,22) (22,20) (19,24) (24,19) (21,24)
(24,21) (20,23) (23,20) (22,23) (23,22)
(24,23) ;

set Ahat :=
(4,1) (4,5) (6,14) (10,5) (11,22) (14,6) (14,13) (15,13)
(16,15) (19,7) (21,18) (23,24);

# rho > suma de flujos generados por todos los orígenes = 2*10*120 = 2400
param rho := 2500;

param Niter := 100;
param eps := 1e-6;

param yb :=
4 1 0
4 5 0
6 14 0
10 5 0
11 22 0
14 6 0
14 13 0
15 13 0
16 15 0
19 7 0
21 18 0
23 24 0 ;

param xc :=
1 2   
2 3
3 4
4 2 
5 3   
6 4   
7 5   
8 1
9 2   
10 3  
11 1  
12 2  
13 3  
14 4  
15 2.5 
16 2
17 3  
18 4  
19 5  
20 3  
21 4  
22 1  
23 3  
24 4 ;

param yc :=
1 1   
2 1   
3 1   
4 2   
5 2   
6 2   
7 2   
8 3
9 3   
10 3  
11 4  
12 4  
13 4  
14 4  
15 5   
16 6
17 6  
18 6  
19 6  
20 7  
21 7  
22 8  
23 8   
24 8 ;

# Convención AMPL network: net_out=t. Positivo en origen, negativo en destinos.
param t default 0: 3 11 :=
3    1200     0
5    -120  -120
8    -120  -120
11      0  1200
12   -120  -120
13   -120  -120
14   -120  -120
17   -120  -120
18   -120  -120
19   -120  -120
21   -120  -120
23   -120  -120 ;
